66 100
8 8 1
8 3 2
5 5 3
2 3 1
4 9 2
10 8 3
2 9 1
6 5 2
10 1 2
7 6 1
3 2 1
8 4 2
6 10 2
7 10 3
5 2 1
4 8 1
4 5 2
9 7 1
5 9 1
8 6 2
5 6 1
8 9 2
3 6 2
9 3 2
7 9 1
4 6 1
8 10 2
2 10 2
1 8 1
3 8 1
2 2 1
3 9 2
4 7 2
10 6 1
9 6 3
3 4 2
2 6 2
6 9 1
2 8 1
6 2 1
2 7 1
6 8 1
6 6 1
10 3 2
2 1 1
4 10 2
9 8 3
3 7 1
4 3 1
4 4 2
4 1 2
10 10 1
6 4 2
9 5 1
2 5 1
2 4 2
8 1 1
7 4 1
7 7 1
1 5 1
1 3 1
10 7 1
7 1 2
5 10 1
1 2 1
7 3 1
10 10 
10 10 
10 10 
10 10 
10 10 
10 10 
10 10 
10 10 
10 10 
10 10 
10 10 
10 10 
10 10 
10 10 
10 10 
10 10 
10 10 
10 10 
10 10 
10 10 
10 10 
10 10 
10 10 
10 10 
10 10 
10 10 
10 10 
10 10 
10 10 
10 10 
10 10 
10 10 
10 10 
10 10 
10 10 
10 10 
10 10 
10 10 
10 10 
10 10 
10 10 
10 10 
10 10 
10 10 
10 10 
10 10 
10 10 
10 10 
10 10 
10 10 
10 10 
10 10 
10 10 
10 10 
10 10 
10 10 
10 10 
10 10 
10 10 
10 10 
10 10 
10 10 
10 10 
10 10 
10 10 
10 10 
10 10 
10 10 
10 10 
10 10 
10 10 
10 10 
10 10 
10 10 
10 10 
10 10 
10 10 
10 10 
10 10 
10 10 
10 10 
10 10 
10 10 
10 10 
10 10 
10 10 
10 10 
10 10 
10 10 
10 10 
10 10 
10 10 
10 10 
10 10 
10 10 
10 10 
10 10 
10 10 
10 10 
10 10 
